constraint solution[4,3,1]=8;
constraint solution[4,3,2]=0;
constraint solution[4,1,1]=0;
constraint solution[4,1,2]=2;
constraint solution[4,1,1]=0;
constraint solution[4,1,2]=2;
constraint solution[4,3,1]=8;
constraint solution[4,3,2]=0;
